 200 58 
 62 23 25 26 26 5 39 10 13 14 60 80 
 58 4 91 32 52 49 30 74 36 97 79 80 
 3 88 87 87 21 50 35 12 24 83 21 11 
 67 88 31 86 5 93 61 43 27 41 12 84 
 72 62 3 51 85 57 17 47 26 25 
 36 
 3 6 7 9 10 12 15 16 18 19 20 21 
 23 24 26 27 28 29 30 31 33 36 37 38 
 39 40 43 44 46 47 48 53 55 56 57 58 
 24 
 1 2 4 5 8 10 19 21 22 23 24 26 
 27 29 31 33 35 43 45 46 47 55 56 57 
 26 
 3 4 6 7 12 15 16 17 20 21 22 23 
 24 29 30 32 35 37 38 39 42 48 51 53 
 56 57 
 38 
 1 5 6 7 8 10 12 13 17 18 19 21 
 22 23 24 25 26 27 28 29 31 32 34 36 
 37 40 41 42 45 46 47 48 49 50 54 55 
 57 58 
 20 
 1 4 6 7 11 14 22 23 24 25 26 27 
 30 37 38 47 49 50 52 57 
 41 
 1 4 5 6 7 8 9 10 11 13 14 17 
 18 19 20 21 22 23 24 26 28 29 30 31 
 32 33 37 38 39 42 43 46 47 48 49 51 
 52 53 55 56 58 
 30 
 2 3 5 6 8 10 12 14 16 19 23 24 
 25 26 27 28 29 31 33 35 36 40 41 44 
 45 46 48 52 56 57 
 12 
 10 12 14 16 19 20 21 35 37 43 46 57 
 41 
 1 2 3 4 5 6 7 8 9 10 12 13 
 14 15 16 17 18 19 20 22 24 26 28 30 
 31 32 35 37 38 40 43 44 45 46 47 50 
 52 54 56 57 58 
 2 
 26 46 
 36 
 2 3 4 5 6 7 8 11 14 16 17 18 
 19 20 21 22 23 24 26 29 31 32 34 40 
 43 44 45 46 47 48 50 51 53 54 55 57 
 27 
 2 3 4 5 6 9 11 15 17 21 24 27 
 30 35 36 39 40 49 50 51 52 53 54 55 
 56 57 58 
 17 
 2 7 12 16 25 26 29 31 35 36 41 42 
 44 46 52 55 58 
 8 
 1 6 8 9 30 45 50 55 
 34 
 1 2 3 4 5 6 7 11 12 14 15 16 
 17 20 22 23 24 25 26 27 28 30 33 35 
 36 39 44 45 46 48 49 53 54 56 
 3 
 3 23 55 
 17 
 8 9 16 19 24 27 29 30 31 32 33 36 
 38 39 42 49 55 
 24 
 6 7 8 9 10 13 14 18 20 22 24 25 
 27 28 30 36 38 39 40 41 43 44 49 54 
 23 
 1 2 4 6 8 9 15 23 24 28 38 39 
 41 43 45 47 49 53 54 55 56 57 58 
 7 
 1 8 17 18 41 47 56 
 35 
 1 2 3 4 10 13 14 15 16 17 19 23 
 24 28 30 31 32 33 36 38 39 40 42 43 
 45 46 47 48 49 50 51 52 55 57 58 
 34 
 3 4 7 9 10 13 15 17 18 19 21 22 
 23 24 26 27 28 30 32 35 36 39 41 42 
 44 45 47 48 49 52 53 56 57 58 
 25 
 1 2 4 6 13 15 16 18 20 22 25 27 
 28 30 31 33 37 38 39 43 44 47 53 56 
 58 
 8 
 6 9 14 17 18 46 49 53 
 53 
 1 2 3 4 5 6 7 9 10 11 12 13 
 14 15 16 18 19 20 21 22 23 24 25 26 
 27 28 30 31 32 34 35 36 37 38 39 40 
 41 42 43 44 45 46 47 48 49 50 51 52 
 53 55 56 57 58 
 47 
 1 2 3 4 5 6 7 8 9 10 11 12 
 13 14 15 16 17 18 21 22 24 25 26 27 
 28 29 30 32 33 36 37 39 40 41 42 43 
 44 45 46 47 48 49 51 52 53 54 56 
 19 
 4 8 14 15 17 18 21 22 23 29 30 31 
 33 35 42 44 47 54 55 
 6 
 7 13 15 24 28 44 
 15 
 10 11 12 14 16 19 24 30 31 39 41 46 
 49 51 53 
 9 
 15 16 19 23 37 43 47 53 58 
 25 
 3 9 12 13 17 18 22 23 24 25 27 31 
 35 36 38 39 41 42 43 46 47 51 54 56 
 58 
 52 
 1 2 3 4 5 6 7 8 9 10 11 12 
 13 14 15 16 17 18 19 20 21 22 23 24 
 25 26 27 28 29 31 32 33 34 36 38 39 
 40 41 43 44 46 47 48 49 50 51 53 54 
 55 56 57 58 
 17 
 1 10 16 19 23 27 35 36 37 38 41 43 
 46 49 53 57 58 
 50 
 1 2 3 5 6 7 8 9 10 11 12 13 
 14 15 16 17 18 19 20 21 22 23 24 25 
 28 29 30 31 32 33 34 35 37 38 39 40 
 41 43 44 46 48 49 50 51 52 53 54 55 
 56 58 
 51 
 1 2 3 4 5 6 7 8 9 10 12 13 
 15 16 17 18 19 20 21 22 23 25 26 27 
 28 29 30 31 32 34 36 37 38 39 41 42 
 43 44 45 46 47 48 49 50 52 53 54 55 
 56 57 58 
 9 
 5 9 17 21 30 32 38 47 49 
 45 
 1 2 3 5 6 7 8 9 11 12 13 15 
 16 17 18 19 20 23 24 25 26 27 28 29 
 31 32 35 36 37 38 39 40 41 42 43 44 
 45 46 47 48 49 51 52 55 57 
 15 
 7 11 14 17 19 20 22 25 29 33 38 40 
 42 51 56 
 43 
 1 2 4 5 6 7 8 9 10 11 14 15 
 16 17 20 21 22 23 25 27 28 29 31 32 
 33 34 35 37 38 39 40 42 43 46 47 48 
 49 50 52 53 54 56 58 
 49 
 1 2 4 5 6 7 8 9 10 11 12 13 
 14 15 16 17 18 20 21 23 24 25 26 27 
 28 29 31 32 33 34 35 36 37 38 39 40 
 42 43 44 45 48 49 50 51 53 54 55 57 
 58 
 20 
 1 3 6 12 13 15 18 20 26 28 30 33 
 35 36 38 39 42 47 56 58 
 38 
 1 2 3 4 6 7 8 11 13 15 16 17 
 18 20 22 24 26 29 30 32 36 37 38 39 
 40 41 42 43 44 46 48 49 50 51 52 56 
 57 58 
 25 
 5 6 7 9 10 12 14 17 22 23 24 25 
 32 34 39 40 42 43 48 49 51 52 54 55 
 57 
 41 
 2 3 4 5 9 10 11 12 13 14 15 16 
 18 20 21 23 24 25 26 27 28 29 30 31 
 33 35 36 37 38 39 40 43 46 47 49 50 
 51 53 54 55 56 
 15 
 3 7 12 16 18 23 26 34 39 41 42 45 
 52 54 56 
 3 
 22 30 47 
 12 
 5 6 9 14 15 16 20 27 32 41 49 51 
 7 
 3 4 5 28 31 45 55 
 21 
 1 2 4 10 14 18 19 20 21 23 31 34 
 35 40 41 43 46 48 50 51 52 
 49 
 1 2 3 4 5 6 8 10 11 14 15 16 
 17 18 19 20 21 22 23 24 25 26 27 28 
 29 32 34 35 36 37 38 40 41 42 43 44 
 45 46 47 48 49 50 51 52 53 55 56 57 
 58 
 28 
 1 2 4 5 7 8 9 10 15 22 26 28 
 32 34 36 40 43 44 47 48 50 51 52 53 
 54 55 56 58 
 13 
 14 25 29 33 36 37 38 39 41 49 50 52 
 56 
 2 
 15 28 
 30 
 2 5 6 7 16 17 18 19 21 22 25 26 
 28 30 31 33 35 38 39 44 46 47 48 50 
 51 52 53 54 55 58 
 3 
 4 15 45 
 57 
 1 2 4 5 6 7 8 9 10 11 12 13 
 14 15 16 17 18 19 20 21 22 23 24 25 
 26 27 28 29 30 31 32 33 34 35 36 37 
 38 39 40 41 42 43 44 45 46 47 48 49 
 50 51 52 53 54 55 56 57 58 
 57 
 1 2 3 4 5 6 7 8 9 10 11 12 
 13 14 15 16 17 18 19 20 21 22 23 24 
 25 26 27 28 29 30 31 32 33 34 35 36 
 37 38 39 40 41 42 43 44 45 46 47 48 
 49 50 51 52 54 55 56 57 58 
 48 
 1 2 3 4 5 6 7 8 10 11 12 13 
 14 15 16 17 18 19 20 22 23 24 26 29 
 30 31 32 33 34 35 36 37 39 41 42 43 
 45 46 47 48 49 50 51 52 53 54 55 58 
 24 
 6 7 14 15 17 18 23 24 25 26 27 28 
 29 30 35 37 38 41 42 44 53 54 55 57 
 23 
 1 2 6 9 10 11 13 14 19 22 28 29 
 34 38 39 40 41 43 45 48 49 50 56 
 52 
 1 2 3 4 5 6 7 8 9 10 11 12 
 13 14 15 16 17 18 19 20 21 24 26 27 
 28 29 30 31 32 33 34 35 36 37 38 39 
 40 41 42 43 44 45 46 47 48 49 50 51 
 52 53 54 57 
 25 
 1 3 4 7 8 10 13 15 17 20 21 22 
 23 27 28 34 35 40 45 46 48 50 51 55 
 56 
 36 
 1 2 7 8 9 10 11 12 14 16 17 18 
 19 20 21 24 27 31 32 33 34 35 36 37 
 38 41 43 44 45 46 48 49 51 52 54 57 
 23 
 3 4 5 9 11 12 16 17 18 22 23 26 
 27 28 31 32 41 42 44 46 51 53 54 
 34 
 2 4 6 7 9 10 11 12 13 15 16 22 
 25 26 28 29 31 32 33 34 35 36 37 39 
 41 42 45 46 49 51 52 54 56 58 
 12 
 6 11 12 18 19 20 24 25 32 44 57 58 
 20 
 1 2 4 11 15 18 20 21 22 28 29 32 
 33 39 42 43 45 53 56 57 
 24 
 5 10 12 13 14 16 17 18 22 23 27 29 
 31 33 38 39 44 48 50 51 52 54 57 58 
 43 
 1 2 6 7 8 10 11 13 14 15 16 17 
 19 21 22 23 25 26 27 28 29 30 31 32 
 34 35 36 39 40 41 44 45 46 48 49 50 
 51 52 53 54 55 57 58 
 17 
 3 9 11 12 13 22 23 24 27 32 36 39 
 48 49 56 57 58 
 46 
 1 2 3 4 7 8 9 10 13 14 15 16 
 19 20 21 22 23 26 27 28 29 30 31 32 
 34 35 37 38 39 41 42 44 45 46 47 48 
 49 50 51 52 53 54 55 56 57 58 
 55 
 1 2 3 4 5 6 7 8 9 10 11 12 
 13 14 16 17 18 19 20 21 22 23 24 25 
 27 28 29 30 31 32 33 34 35 36 38 39 
 40 41 42 43 44 45 46 47 48 49 50 51 
 52 53 54 55 56 57 58 
 46 
 1 2 4 5 6 7 8 9 10 11 12 13 
 15 18 19 20 21 23 24 25 27 28 29 34 
 36 37 38 39 40 41 42 43 44 45 46 47 
 48 50 51 52 53 54 55 56 57 58 
 32 
 1 2 7 8 12 13 15 16 19 20 23 24 
 27 28 29 35 36 39 41 42 43 45 46 47 
 48 50 52 53 54 56 57 58 
 48 
 1 2 3 4 5 6 7 8 9 10 13 14 
 15 16 17 19 20 21 23 25 26 27 28 29 
 30 31 33 34 35 36 37 38 39 40 43 44 
 46 47 49 50 51 52 53 54 55 56 57 58 
 42 
 1 3 4 5 7 8 9 11 13 14 16 17 
 19 22 23 24 26 27 29 34 35 36 37 40 
 41 42 43 44 45 46 47 48 49 50 51 52 
 53 54 55 56 57 58 
 55 
 1 3 4 5 6 7 8 9 10 11 12 13 
 14 15 16 17 18 19 20 21 22 23 24 25 
 26 27 28 29 30 31 32 33 35 36 37 38 
 39 41 42 43 44 45 46 47 48 49 50 51 
 52 53 54 55 56 57 58 
 39 
 1 3 4 5 7 9 10 13 14 17 18 20 
 21 22 23 24 25 26 27 29 31 32 34 35 
 37 38 39 40 41 42 45 48 49 50 51 53 
 55 57 58 
 35 
 3 4 5 6 7 8 9 11 13 14 15 16 
 19 20 21 22 23 24 25 27 28 30 31 32 
 36 37 38 41 43 46 48 50 51 53 54 
 52 
 1 2 3 4 5 6 8 9 10 11 12 13 
 14 15 16 17 18 19 20 24 25 26 27 28 
 29 30 31 32 33 35 37 38 39 40 41 42 
 43 44 45 46 47 48 49 50 51 52 53 54 
 55 56 57 58 
 4 
 1 11 42 44 
 58 
 1 2 3 4 5 6 7 8 9 10 11 12 
 13 14 15 16 17 18 19 20 21 22 23 24 
 25 26 27 28 29 30 31 32 33 34 35 36 
 37 38 39 40 41 42 43 44 45 46 47 48 
 49 50 51 52 53 54 55 56 57 58 
 40 
 2 3 4 5 8 11 12 13 14 15 17 18 
 19 20 21 24 26 27 28 29 31 32 34 35 
 36 37 38 41 42 44 46 48 49 50 51 53 
 54 56 57 58 
 2 
 13 39 
 48 
 1 2 3 4 5 6 7 8 9 10 11 13 
 16 17 18 19 21 22 23 25 26 27 28 29 
 30 31 32 33 35 38 39 40 41 43 45 46 
 47 48 49 50 51 52 53 54 55 56 57 58 
 4 
 2 12 22 32 
 5 
 23 28 36 37 53 
 14 
 4 7 12 14 15 16 23 32 33 35 36 48 
 49 55 
 34 
 2 3 5 7 8 9 11 12 14 15 16 18 
 21 23 24 25 26 28 31 36 38 39 40 41 
 43 44 45 47 49 52 53 54 56 57 
 8 
 3 23 32 33 42 44 49 51 
 7 
 12 13 20 21 31 37 57 
 22 
 1 4 5 7 8 10 12 13 19 22 23 25 
 27 28 33 34 35 37 39 48 50 51 
 22 
 2 5 6 7 10 14 15 16 17 21 22 25 
 29 33 37 40 42 43 44 45 53 55 
 39 
 1 2 3 4 5 6 7 8 11 13 17 19 
 21 22 23 24 25 26 27 28 29 30 31 32 
 33 36 37 39 41 42 44 48 49 51 52 53 
 55 57 58 
 54 
 1 2 3 4 5 6 7 8 9 10 11 12 
 13 14 15 16 17 18 19 20 21 22 23 24 
 25 26 27 28 29 30 31 32 33 34 35 36 
 37 39 40 41 42 43 44 46 47 48 49 50 
 51 54 55 56 57 58 
 58 
 1 2 3 4 5 6 7 8 9 10 11 12 
 13 14 15 16 17 18 19 20 21 22 23 24 
 25 26 27 28 29 30 31 32 33 34 35 36 
 37 38 39 40 41 42 43 44 45 46 47 48 
 49 50 51 52 53 54 55 56 57 58 
 27 
 1 2 7 8 9 10 11 13 15 18 23 25 
 27 29 31 35 36 39 40 41 43 45 48 49 
 50 51 54 
 56 
 1 2 3 4 5 6 7 8 9 10 11 12 
 13 14 15 16 17 18 19 20 21 22 23 24 
 25 26 27 28 29 30 31 32 33 34 35 36 
 37 38 39 40 41 42 43 44 45 46 47 48 
 49 50 51 52 53 55 56 58 
 56 
 1 2 3 5 6 7 8 9 10 11 12 13 
 14 15 16 17 18 20 21 22 23 24 25 26 
 27 28 29 30 31 32 33 34 35 36 37 38 
 39 40 41 42 43 44 45 46 47 48 49 50 
 51 52 53 54 55 56 57 58 
 57 
 1 2 3 4 5 6 7 8 9 10 11 12 
 13 14 15 16 17 18 20 21 22 23 24 25 
 26 27 28 29 30 31 32 33 34 35 36 37 
 38 39 40 41 42 43 44 45 46 47 48 49 
 50 51 52 53 54 55 56 57 58 
 55 
 1 2 3 4 5 6 7 8 9 11 12 13 
 14 15 16 17 18 19 20 21 22 23 24 25 
 26 27 28 29 30 31 32 33 34 35 36 37 
 38 39 40 41 42 43 44 45 46 47 48 50 
 51 52 53 54 56 57 58 
 30 
 2 5 8 11 13 17 18 19 20 21 22 27 
 28 29 30 31 35 36 38 39 41 42 43 44 
 46 48 50 53 56 58 
 20 
 3 7 11 12 14 19 20 23 24 26 27 31 
 32 34 38 40 49 50 53 57 
 25 
 1 2 3 7 9 10 13 17 19 20 21 23 
 24 25 29 31 37 38 41 43 45 46 52 53 
 58 
 43 
 2 3 4 5 6 11 12 13 14 15 16 18 
 19 22 23 24 25 27 29 30 31 33 35 37 
 38 39 40 41 42 43 44 45 47 48 49 51 
 52 53 54 55 56 57 58 
 46 
 1 3 5 6 8 9 10 11 12 13 15 16 
 17 18 20 21 22 23 24 25 26 28 30 31 
 32 33 35 36 37 38 40 41 42 43 44 45 
 47 48 49 50 53 54 55 56 57 58 
 34 
 1 2 3 5 6 7 12 13 18 19 20 22 
 23 26 27 29 30 31 33 34 35 37 39 40 
 41 44 45 46 47 48 49 53 55 56 
 26 
 5 6 11 12 15 16 20 21 22 24 29 31 
 33 34 35 37 38 39 40 43 44 47 48 54 
 55 58 
 24 
 2 3 5 8 10 14 17 19 20 21 28 32 
 37 40 41 43 48 50 51 52 53 54 56 58 
 38 
 3 4 5 6 8 9 11 12 13 14 15 16 
 18 21 23 24 25 29 30 31 32 34 36 41 
 42 43 44 46 47 48 50 51 52 53 54 56 
 57 58 
 6 
 13 24 29 47 49 56 
 58 
 1 2 3 4 5 6 7 8 9 10 11 12 
 13 14 15 16 17 18 19 20 21 22 23 24 
 25 26 27 28 29 30 31 32 33 34 35 36 
 37 38 39 40 41 42 43 44 45 46 47 48 
 49 50 51 52 53 54 55 56 57 58 
 44 
 2 3 4 5 6 7 9 10 11 12 13 14 
 15 16 17 19 21 22 23 24 26 27 28 31 
 32 33 34 35 37 38 40 41 42 43 44 45 
 46 48 49 51 53 55 57 58 
 48 
 2 5 6 7 8 9 10 11 13 14 16 17 
 18 19 20 21 22 23 24 25 27 28 29 30 
 31 32 33 35 36 37 38 40 41 42 43 44 
 45 47 48 49 50 51 52 53 54 55 57 58 
 17 
 1 3 6 7 12 15 16 18 22 23 25 36 
 37 39 48 50 58 
 6 
 18 22 30 34 40 57 
 2 
 17 38 
 12 
 6 8 9 20 26 37 40 46 48 49 52 56 
 15 
 13 15 17 19 24 25 28 33 34 35 40 41 
 49 54 58 
 6 
 4 9 11 31 42 43 
 5 
 18 26 28 36 56 
 17 
 1 8 10 11 16 20 25 26 28 32 34 39 
 44 46 51 53 56 
 38 
 1 6 7 8 9 12 13 14 16 17 18 21 
 22 23 24 26 27 29 30 31 32 33 34 37 
 38 40 41 42 44 45 46 47 48 53 54 55 
 56 58 
 6 
 7 20 23 53 54 55 
 14 
 12 21 24 26 28 29 33 36 37 44 45 46 
 50 53 
 38 
 3 4 5 6 7 9 10 11 15 17 20 21 
 23 24 25 26 28 29 31 32 34 35 36 37 
 39 40 41 42 45 46 47 48 49 53 54 55 
 56 57 
 54 
 1 2 3 4 5 6 7 8 10 12 13 14 
 15 16 17 18 19 20 21 22 23 24 25 26 
 27 28 29 30 31 32 33 35 36 37 38 39 
 40 41 42 43 44 45 46 47 49 50 51 52 
 53 54 55 56 57 58 
 2 
 40 47 
 25 
 1 2 3 6 12 14 15 18 21 26 27 29 
 30 32 33 37 39 44 45 46 47 48 54 56 
 58 
 35 
 2 5 7 9 10 12 13 14 15 16 19 21 
 23 24 25 26 27 28 29 30 31 33 35 36 
 37 38 39 42 46 47 48 52 53 55 58 
 14 
 1 11 12 22 23 26 27 29 46 50 52 56 
 57 58 
 23 
 1 5 6 11 16 19 20 22 24 26 27 28 
 36 38 39 42 46 47 50 52 54 57 58 
 14 
 3 12 17 20 27 30 34 35 39 45 47 51 
 52 57 
 8 
 10 18 20 24 25 44 45 49 
 52 
 1 2 3 4 5 6 7 9 10 11 12 13 
 15 16 17 18 20 21 22 23 24 26 27 28 
 29 30 31 32 33 35 36 37 38 39 40 41 
 42 43 44 45 46 47 48 49 50 51 52 53 
 55 56 57 58 
 19 
 1 2 4 6 7 11 14 15 20 21 26 29 
 40 44 46 47 49 51 54 
 22 
 2 3 7 8 11 17 18 21 24 25 26 30 
 32 45 46 48 49 52 53 54 56 57 
 38 
 1 2 3 4 6 7 9 10 12 13 17 19 
 20 21 22 23 24 27 29 30 33 34 36 37 
 38 39 41 42 43 46 47 48 49 50 53 54 
 55 56 
 13 
 2 3 6 13 14 25 26 37 39 47 48 51 
 52 
 4 
 4 21 27 42 
 24 
 1 3 7 10 12 17 18 21 22 23 24 26 
 27 28 29 32 33 38 40 42 49 50 51 56 
 29 
 3 9 11 12 13 16 18 19 22 23 24 25 
 28 29 30 32 33 35 37 40 42 43 44 47 
 49 54 56 57 58 
 28 
 1 4 7 10 11 12 13 14 20 21 22 23 
 24 26 27 28 30 31 34 37 39 41 42 44 
 47 48 51 56 
 24 
 6 7 10 12 14 17 18 20 23 24 25 26 
 33 34 38 40 42 43 48 49 51 52 55 58 
 18 
 1 3 6 7 10 14 23 26 29 30 38 39 
 41 48 49 50 56 58 
 32 
 3 4 6 7 8 10 12 15 16 20 22 25 
 26 27 28 34 36 37 39 40 43 44 45 47 
 48 50 52 53 54 55 56 57 
 50 
 1 4 6 7 8 9 10 11 12 14 15 16 
 17 18 19 20 21 22 23 25 26 27 28 29 
 30 31 32 33 34 35 36 37 38 39 40 41 
 43 44 45 47 49 50 51 52 53 54 55 56 
 57 58 
 27 
 1 3 5 10 11 12 17 19 20 21 24 27 
 28 30 32 33 36 38 39 40 42 45 46 48 
 50 56 58 
 9 
 2 7 11 19 26 49 55 57 58 
 17 
 2 13 22 29 30 34 38 44 46 47 48 50 
 51 52 54 56 58 
 32 
 1 2 4 8 9 10 13 17 18 20 21 26 
 29 32 33 34 35 36 39 40 41 42 43 45 
 46 48 49 52 53 56 57 58 
 43 
 2 3 5 6 8 9 10 11 12 14 15 16 
 17 18 19 20 21 23 24 25 26 28 31 32 
 33 34 35 36 37 38 40 41 42 43 44 46 
 47 49 50 51 54 55 58 
 50 
 1 2 3 4 5 6 10 11 12 13 14 15 
 16 17 18 19 20 21 22 23 24 25 26 27 
 29 30 32 33 34 35 36 37 38 39 40 42 
 43 44 45 46 47 49 50 51 52 53 54 56 
 57 58 
 4 
 23 28 40 46 
 7 
 2 3 4 5 26 38 43 
 38 
 1 3 4 5 6 7 9 10 13 15 20 22 
 23 24 25 26 27 30 34 35 36 37 38 39 
 40 41 43 44 45 46 47 49 50 51 53 55 
 57 58 
 41 
 1 2 3 4 5 6 7 8 9 10 11 12 
 13 14 15 16 17 19 20 23 24 27 31 32 
 33 35 36 37 39 41 43 45 46 47 48 49 
 50 52 55 56 58 
 52 
 1 4 5 6 7 8 9 10 11 12 13 14 
 15 16 17 18 19 20 21 22 23 24 26 27 
 28 29 30 32 33 34 35 36 37 38 39 41 
 42 43 44 45 46 47 48 49 50 51 52 53 
 54 55 56 57 
 40 
 2 3 4 6 7 8 10 11 13 15 17 18 
 19 20 21 22 23 26 27 28 29 32 33 35 
 36 37 38 42 43 44 45 47 50 52 53 54 
 55 56 57 58 
 54 
 1 2 3 4 5 6 7 8 9 10 11 12 
 13 14 15 16 18 19 20 21 22 23 24 25 
 26 27 28 29 30 31 32 33 34 35 37 38 
 39 40 41 42 43 44 45 47 48 49 50 51 
 52 53 55 56 57 58 
 6 
 22 23 29 41 52 54 
 42 
 1 3 4 5 6 7 11 13 14 15 17 19 
 20 21 22 23 24 28 29 30 31 33 35 36 
 37 39 40 41 42 43 44 45 46 47 48 49 
 50 51 53 55 57 58 
 18 
 4 8 10 11 13 16 17 18 21 28 30 33 
 35 37 41 49 52 57 
 4 
 3 10 32 48 
 15 
 3 6 8 10 11 13 16 21 23 25 34 46 
 47 50 54 
 46 
 1 2 4 6 7 8 10 11 13 14 15 16 
 17 18 19 20 22 23 24 25 27 28 29 32 
 33 34 35 37 38 39 40 41 42 43 44 45 
 46 47 49 50 51 53 54 55 56 57 
 55 
 1 2 3 4 5 6 7 8 9 10 11 13 
 14 15 16 17 19 20 21 22 23 24 25 26 
 27 28 29 30 31 32 33 34 35 36 37 38 
 39 41 42 43 44 45 46 47 48 49 50 51 
 52 53 54 55 56 57 58 
 3 
 12 20 58 
 51 
 1 3 5 6 7 8 9 12 13 14 15 16 
 17 18 19 20 21 22 23 24 25 26 27 28 
 29 31 32 33 34 36 37 38 39 40 41 42 
 43 44 45 46 48 49 50 51 52 53 54 55 
 56 57 58 
 20 
 2 8 10 13 20 21 22 23 24 27 28 29 
 30 32 33 35 41 44 45 52 
 8 
 7 12 14 15 17 33 40 49 
 10 
 8 10 15 28 31 32 34 36 38 48 
 20 
 3 5 7 12 13 15 18 22 25 27 35 36 
 37 38 41 44 46 49 50 52 
 56 
 1 2 3 4 5 6 7 8 9 10 11 12 
 13 14 15 16 17 18 19 20 21 22 23 24 
 25 26 27 28 29 30 31 32 33 34 36 37 
 38 39 40 41 42 43 44 45 46 47 48 50 
 51 52 53 54 55 56 57 58 
 54 
 1 2 3 4 5 6 7 8 9 10 11 12 
 13 14 15 16 17 18 19 20 21 22 23 24 
 25 26 27 29 31 32 33 34 36 37 38 40 
 41 42 43 44 45 46 47 48 49 50 51 52 
 53 54 55 56 57 58 
 48 
 1 2 3 4 5 7 9 10 11 12 13 14 
 15 16 17 18 19 20 21 23 24 25 26 27 
 28 29 30 31 33 35 36 37 38 40 41 42 
 43 44 45 48 49 51 52 53 54 55 56 57 
 25 
 3 6 7 10 11 12 14 18 20 21 23 24 
 26 30 31 32 33 38 39 43 46 53 55 56 
 58 
 52 
 1 2 3 4 5 6 7 8 9 10 12 13 
 14 15 16 17 18 19 20 21 22 23 24 25 
 27 29 30 31 32 33 34 35 36 37 38 39 
 40 41 42 43 44 46 47 48 49 51 53 54 
 55 56 57 58 
 6 
 10 36 38 42 46 54 
 24 
 6 8 9 14 16 18 22 24 27 28 31 32 
 33 39 41 42 45 47 48 50 51 52 53 57 
 39 
 1 3 4 7 8 10 13 16 17 18 20 21 
 22 23 24 26 27 28 29 31 33 34 36 40 
 42 43 44 45 46 48 49 50 51 52 53 55 
 56 57 58 
 10 
 5 7 8 15 23 30 39 44 50 56 
 51 
 1 2 3 4 5 6 7 8 9 10 11 12 
 13 14 15 16 17 18 19 20 23 24 25 26 
 27 28 29 30 31 32 34 35 36 37 38 39 
 40 41 43 44 45 46 47 48 49 51 52 53 
 54 55 58 
 15 
 1 3 6 7 14 17 18 22 32 34 40 45 
 46 51 52 
 28 
 3 4 7 10 14 16 17 20 21 25 27 29 
 30 32 34 35 37 38 41 42 43 48 49 50 
 53 55 57 58 
 13 
 8 10 15 16 23 27 28 29 37 40 42 53 
 56 
 23 
 6 8 10 12 13 14 15 22 25 26 32 36 
 43 44 45 46 47 50 51 52 53 54 58 
 56 
 1 2 3 4 5 6 7 8 9 10 13 14 
 15 16 17 18 19 20 21 22 23 24 25 26 
 27 28 29 30 31 32 33 34 35 36 37 38 
 39 40 41 42 43 44 45 46 47 48 49 50 
 51 52 53 54 55 56 57 58 
 17 
 1 3 4 7 11 12 16 17 18 19 30 31 
 32 38 47 56 57 
 13 
 12 16 18 24 27 31 35 37 42 43 44 47 
 48 
 2 
 21 30 
 46 
 2 4 5 6 7 8 10 11 12 13 14 15 
 16 19 20 21 22 23 24 25 27 28 29 30 
 31 32 33 34 37 38 39 40 41 42 43 44 
 45 46 48 49 51 52 53 54 56 58 
 13 
 12 13 19 21 24 30 36 37 45 47 48 51 
 53 
 32 
 5 7 9 11 12 14 15 17 21 22 24 25 
 26 29 31 33 35 36 37 38 40 41 45 46 
 50 51 52 53 55 56 57 58 
 51 
 1 2 3 4 5 9 10 11 12 13 15 16 
 17 20 21 22 23 24 25 26 27 28 29 30 
 31 32 33 34 35 36 38 39 40 41 42 43 
 44 45 46 47 48 49 50 51 52 53 54 55 
 56 57 58 
 8 
 7 9 11 39 44 45 51 53 
 30 
 2 3 4 5 9 10 13 15 17 18 19 20 
 23 25 26 28 30 31 33 34 35 37 38 40 
 42 43 44 45 53 54 
 11 
 4 7 16 18 22 26 30 37 40 42 50 
 50 
 2 3 4 5 7 9 10 11 12 13 14 16 
 17 18 19 20 21 23 24 25 26 27 28 29 
 30 32 33 34 35 36 37 38 39 40 41 42 
 44 46 47 48 49 50 51 52 53 54 55 56 
 57 58 
 19 
 7 11 12 14 19 26 30 31 36 37 39 41 
 46 47 51 52 53 56 58 
 